50 300
 190 181 125 116 127 112 154 108 175 149 138 123 195 197 127 191 151 150 147 167 140 198 135 134 137 149 150 141 181 119 191 198 191 103 157 139 154 178 129 142 109 122 125 105 150 193 165 178 138 102